certificates/rado_a9_c130_N26.cnf
c Rad2 upper bound instance: x1 + 9*x2 - x3 = 130, interval [1,26]
p cnf 26 148
1 6 15 0
-1 -6 -15 0
1 15 16 0
-1 -15 -16 0
1 17 24 0
-1 -17 -24 0
2 7 15 0
-2 -7 -15 0
2 16 0
-2 -16 0
2 17 25 0
-2 -17 -25 0
3 8 15 0
-3 -8 -15 0
3 16 17 0
-3 -16 -17 0
3 17 26 0
-3 -17 -26 0
4 9 15 0
-4 -9 -15 0
4 16 18 0
-4 -16 -18 0
1 5 14 0
-1 -5 -14 0
5 10 15 0
-5 -10 -15 0
5 16 19 0
-5 -16 -19 0
2 6 14 0
-2 -6 -14 0
6 11 15 0
-6 -11 -15 0
6 16 20 0
-6 -16 -20 0
3 7 14 0
-3 -7 -14 0
7 12 15 0
-7 -12 -15 0
7 16 21 0
-7 -16 -21 0
4 8 14 0
-4 -8 -14 0
8 13 15 0
-8 -13 -15 0
8 16 22 0
-8 -16 -22 0
5 9 14 0
-5 -9 -14 0
9 14 15 0
-9 -14 -15 0
9 16 23 0
-9 -16 -23 0
6 10 14 0
-6 -10 -14 0
10 15 0
-10 -15 0
10 16 24 0
-10 -16 -24 0
7 11 14 0
-7 -11 -14 0
11 15 16 0
-11 -15 -16 0
11 16 25 0
-11 -16 -25 0
8 12 14 0
-8 -12 -14 0
12 15 17 0
-12 -15 -17 0
12 16 26 0
-12 -16 -26 0
9 13 14 0
-9 -13 -14 0
13 15 18 0
-13 -15 -18 0
1 13 14 0
-1 -13 -14 0
10 14 0
-10 -14 0
14 15 19 0
-14 -15 -19 0
2 13 15 0
-2 -13 -15 0
11 14 15 0
-11 -14 -15 0
15 20 0
-15 -20 0
3 13 16 0
-3 -13 -16 0
12 14 16 0
-12 -14 -16 0
15 16 21 0
-15 -16 -21 0
4 13 17 0
-4 -13 -17 0
13 14 17 0
-13 -14 -17 0
15 17 22 0
-15 -17 -22 0
5 13 18 0
-5 -13 -18 0
14 18 0
-14 -18 0
15 18 23 0
-15 -18 -23 0
6 13 19 0
-6 -13 -19 0
15 19 24 0
-15 -19 -24 0
7 13 20 0
-7 -13 -20 0
14 16 20 0
-14 -16 -20 0
15 20 25 0
-15 -20 -25 0
8 13 21 0
-8 -13 -21 0
14 17 21 0
-14 -17 -21 0
15 21 26 0
-15 -21 -26 0
9 13 22 0
-9 -13 -22 0
14 18 22 0
-14 -18 -22 0
1 12 23 0
-1 -12 -23 0
10 13 23 0
-10 -13 -23 0
14 19 23 0
-14 -19 -23 0
2 12 24 0
-2 -12 -24 0
11 13 24 0
-11 -13 -24 0
14 20 24 0
-14 -20 -24 0
3 12 25 0
-3 -12 -25 0
12 13 25 0
-12 -13 -25 0
14 21 25 0
-14 -21 -25 0
4 12 26 0
-4 -12 -26 0
13 26 0
-13 -26 0
14 22 26 0
-14 -22 -26 0
