certificates/rado_a9_c130_N26.drat
14 -24 13 0
-14 -26 0
-26 0
13 0
-14 24 0
14 0
-10 0
-18 0
-1 0
-9 0
-17 0
24 0
15 0
3 0
-11 0
-20 0
-19 0
-2 0
-8 0
-16 0
-7 0
5 0
0
